unsat
(:max-memory         18.53
 :memory             18.43
 :nlsat-arith-var    3
 :nlsat-atoms        12
 :nlsat-bool-var     2
 :nlsat-clauses      10
 :nlsat-conflicts    2
 :nlsat-propagations 7
 :nlsat-stages       2
 :num-allocs         58016
 :rlimit-count       1794
 :time               0.00
 :total-time         0.01)
